result&benchmarks/Data/Ex1/verify/Output/inv_square-1_process_dc_iter1Output/Counterexample.1.txt
none:	N37 -{INIT GLOBAL VARS}-> N66
/usr/include/assert.h, lines 69-71:	N66 -{void __assert_fail(const char *__assertion, const char *__file, unsigned int __line, const char *__function);}-> N67
/usr/include/assert.h, lines 74-76:	N67 -{void __assert_perror_fail(int __errnum, const char *__file, unsigned int __line, const char *__function);}-> N68
/usr/include/assert.h, lines 81-82:	N68 -{void __assert(const char *__assertion, const char *__file, int __line);}-> N69
/usr/lib/gcc/x86_64-linux-gnu/11/include/stddef.h, line 209:	N69 -{typedef unsigned long int size_t;}-> N70
/usr/lib/gcc/x86_64-linux-gnu/11/include/stddef.h, line 321:	N70 -{typedef int wchar_t;}-> N71
/usr/include/stdlib.h, lines 59-63:	N71 -{struct __anon_type_div_t {   int quot;   int rem; } ;}-> N72
/usr/include/stdlib.h, lines 59-63:	N72 -{typedef struct __anon_type_div_t div_t;}-> N73
/usr/include/stdlib.h, lines 67-71:	N73 -{struct __anon_type_ldiv_t {   long int quot;   long int rem; } ;}-> N74
/usr/include/stdlib.h, lines 67-71:	N74 -{typedef struct __anon_type_ldiv_t ldiv_t;}-> N75
/usr/include/stdlib.h, lines 77-81:	N75 -{struct __anon_type_lldiv_t {   long long int quot;   long long int rem; } ;}-> N76
/usr/include/stdlib.h, lines 77-81:	N76 -{typedef struct __anon_type_lldiv_t lldiv_t;}-> N77
/usr/include/stdlib.h, line 98:	N77 -{size_t __ctype_get_mb_cur_max();}-> N78
/usr/include/stdlib.h, lines 102-103:	N78 -{double atof(const char *__nptr);}-> N79
/usr/include/stdlib.h, lines 105-106:	N79 -{int atoi(const char *__nptr);}-> N80
/usr/include/stdlib.h, lines 108-109:	N80 -{long int atol(const char *__nptr);}-> N81
/usr/include/stdlib.h, lines 113-114:	N81 -{long long int atoll(const char *__nptr);}-> N82
/usr/include/stdlib.h, lines 118-120:	N82 -{double strtod(const char *__nptr, char **__endptr);}-> N83
/usr/include/stdlib.h, lines 124-125:	N83 -{float strtof(const char *__nptr, char **__endptr);}-> N84
/usr/include/stdlib.h, lines 127-129:	N84 -{long double strtold(const char *__nptr, char **__endptr);}-> N85
/usr/include/stdlib.h, lines 177-179:	N85 -{long int strtol(const char *__nptr, char **__endptr, int __base);}-> N86
/usr/include/stdlib.h, lines 181-183:	N86 -{unsigned long int strtoul(const char *__nptr, char **__endptr, int __base);}-> N87
/usr/include/stdlib.h, lines 188-190:	N87 -{long long int strtoq(const char *__nptr, char **__endptr, int __base);}-> N88
/usr/include/stdlib.h, lines 193-195:	N88 -{unsigned long long int strtouq(const char *__nptr, char **__endptr, int __base);}-> N89
/usr/include/stdlib.h, lines 201-203:	N89 -{long long int strtoll(const char *__nptr, char **__endptr, int __base);}-> N90
/usr/include/stdlib.h, lines 206-208:	N90 -{unsigned long long int strtoull(const char *__nptr, char **__endptr, int __base);}-> N91
/usr/include/stdlib.h, line 386:	N91 -{char *l64a(long int __n);}-> N92
/usr/include/stdlib.h, lines 389-390:	N92 -{long int a64l(const char *__s);}-> N93
/usr/include/x86_64-linux-gnu/bits/types.h, line 31:	N93 -{typedef unsigned char __u_char;}-> N94
/usr/include/x86_64-linux-gnu/bits/types.h, line 32:	N94 -{typedef unsigned short int __u_short;}-> N95
/usr/include/x86_64-linux-gnu/bits/types.h, line 33:	N95 -{typedef unsigned int __u_int;}-> N96
/usr/include/x86_64-linux-gnu/bits/types.h, line 34:	N96 -{typedef unsigned long int __u_long;}-> N97
/usr/include/x86_64-linux-gnu/bits/types.h, line 37:	N97 -{typedef signed char __int8_t;}-> N98
/usr/include/x86_64-linux-gnu/bits/types.h, line 38:	N98 -{typedef unsigned char __uint8_t;}-> N99
/usr/include/x86_64-linux-gnu/bits/types.h, line 39:	N99 -{typedef signed short int __int16_t;}-> N100
/usr/include/x86_64-linux-gnu/bits/types.h, line 40:	N100 -{typedef unsigned short int __uint16_t;}-> N101
/usr/include/x86_64-linux-gnu/bits/types.h, line 41:	N101 -{typedef signed int __int32_t;}-> N102
/usr/include/x86_64-linux-gnu/bits/types.h, line 42:	N102 -{typedef unsigned int __uint32_t;}-> N103
/usr/include/x86_64-linux-gnu/bits/types.h, line 44:	N103 -{typedef signed long int __int64_t;}-> N104
/usr/include/x86_64-linux-gnu/bits/types.h, line 45:	N104 -{typedef unsigned long int __uint64_t;}-> N105
/usr/include/x86_64-linux-gnu/bits/types.h, line 52:	N105 -{typedef __int8_t __int_least8_t;}-> N106
/usr/include/x86_64-linux-gnu/bits/types.h, line 53:	N106 -{typedef __uint8_t __uint_least8_t;}-> N107
/usr/include/x86_64-linux-gnu/bits/types.h, line 54:	N107 -{typedef __int16_t __int_least16_t;}-> N108
/usr/include/x86_64-linux-gnu/bits/types.h, line 55:	N108 -{typedef __uint16_t __uint_least16_t;}-> N109
/usr/include/x86_64-linux-gnu/bits/types.h, line 56:	N109 -{typedef __int32_t __int_least32_t;}-> N110
/usr/include/x86_64-linux-gnu/bits/types.h, line 57:	N110 -{typedef __uint32_t __uint_least32_t;}-> N111
/usr/include/x86_64-linux-gnu/bits/types.h, line 58:	N111 -{typedef __int64_t __int_least64_t;}-> N112
/usr/include/x86_64-linux-gnu/bits/types.h, line 59:	N112 -{typedef __uint64_t __uint_least64_t;}-> N113
/usr/include/x86_64-linux-gnu/bits/types.h, line 63:	N113 -{typedef long int __quad_t;}-> N114
/usr/include/x86_64-linux-gnu/bits/types.h, line 64:	N114 -{typedef unsigned long int __u_quad_t;}-> N115
/usr/include/x86_64-linux-gnu/bits/types.h, line 72:	N115 -{typedef long int __intmax_t;}-> N116
/usr/include/x86_64-linux-gnu/bits/types.h, line 73:	N116 -{typedef unsigned long int __uintmax_t;}-> N117
/usr/include/x86_64-linux-gnu/bits/types.h, line 145:	N117 -{typedef unsigned long int __dev_t;}-> N118
/usr/include/x86_64-linux-gnu/bits/types.h, line 146:	N118 -{typedef unsigned int __uid_t;}-> N119
/usr/include/x86_64-linux-gnu/bits/types.h, line 147:	N119 -{typedef unsigned int __gid_t;}-> N120
/usr/include/x86_64-linux-gnu/bits/types.h, line 148:	N120 -{typedef unsigned long int __ino_t;}-> N121
/usr/include/x86_64-linux-gnu/bits/types.h, line 149:	N121 -{typedef unsigned long int __ino64_t;}-> N122
/usr/include/x86_64-linux-gnu/bits/types.h, line 150:	N122 -{typedef unsigned int __mode_t;}-> N123
/usr/include/x86_64-linux-gnu/bits/types.h, line 151:	N123 -{typedef unsigned long int __nlink_t;}-> N124
/usr/include/x86_64-linux-gnu/bits/types.h, line 152:	N124 -{typedef long int __off_t;}-> N125
/usr/include/x86_64-linux-gnu/bits/types.h, line 153:	N125 -{typedef long int __off64_t;}-> N126
/usr/include/x86_64-linux-gnu/bits/types.h, line 154:	N126 -{typedef int __pid_t;}-> N127
/usr/include/x86_64-linux-gnu/bits/types.h, line 155:	N127 -{struct __anon_type___fsid_t {   int __val[2]; } ;}-> N128
/usr/include/x86_64-linux-gnu/bits/types.h, line 155:	N128 -{typedef struct __anon_type___fsid_t __fsid_t;}-> N129
/usr/include/x86_64-linux-gnu/bits/types.h, line 156:	N129 -{typedef long int __clock_t;}-> N130
/usr/include/x86_64-linux-gnu/bits/types.h, line 157:	N130 -{typedef unsigned long int __rlim_t;}-> N131
/usr/include/x86_64-linux-gnu/bits/types.h, line 158:	N131 -{typedef unsigned long int __rlim64_t;}-> N132
/usr/include/x86_64-linux-gnu/bits/types.h, line 159:	N132 -{typedef unsigned int __id_t;}-> N133
/usr/include/x86_64-linux-gnu/bits/types.h, line 160:	N133 -{typedef long int __time_t;}-> N134
/usr/include/x86_64-linux-gnu/bits/types.h, line 161:	N134 -{typedef unsigned int __useconds_t;}-> N135
/usr/include/x86_64-linux-gnu/bits/types.h, line 162:	N135 -{typedef long int __suseconds_t;}-> N136
/usr/include/x86_64-linux-gnu/bits/types.h, line 163:	N136 -{typedef long int __suseconds64_t;}-> N137
/usr/include/x86_64-linux-gnu/bits/types.h, line 165:	N137 -{typedef int __daddr_t;}-> N138
/usr/include/x86_64-linux-gnu/bits/types.h, line 166:	N138 -{typedef int __key_t;}-> N139
/usr/include/x86_64-linux-gnu/bits/types.h, line 169:	N139 -{typedef int __clockid_t;}-> N140
/usr/include/x86_64-linux-gnu/bits/types.h, line 172:	N140 -{typedef void *__timer_t;}-> N141
/usr/include/x86_64-linux-gnu/bits/types.h, line 175:	N141 -{typedef long int __blksize_t;}-> N142
/usr/include/x86_64-linux-gnu/bits/types.h, line 180:	N142 -{typedef long int __blkcnt_t;}-> N143
/usr/include/x86_64-linux-gnu/bits/types.h, line 181:	N143 -{typedef long int __blkcnt64_t;}-> N144
/usr/include/x86_64-linux-gnu/bits/types.h, line 184:	N144 -{typedef unsigned long int __fsblkcnt_t;}-> N145
/usr/include/x86_64-linux-gnu/bits/types.h, line 185:	N145 -{typedef unsigned long int __fsblkcnt64_t;}-> N146
/usr/include/x86_64-linux-gnu/bits/types.h, line 188:	N146 -{typedef unsigned long int __fsfilcnt_t;}-> N147
/usr/include/x86_64-linux-gnu/bits/types.h, line 189:	N147 -{typedef unsigned long int __fsfilcnt64_t;}-> N148
/usr/include/x86_64-linux-gnu/bits/types.h, line 192:	N148 -{typedef long int __fsword_t;}-> N149
/usr/include/x86_64-linux-gnu/bits/types.h, line 194:	N149 -{typedef long int __ssize_t;}-> N150
/usr/include/x86_64-linux-gnu/bits/types.h, line 197:	N150 -{typedef long int __syscall_slong_t;}-> N151
/usr/include/x86_64-linux-gnu/bits/types.h, line 199:	N151 -{typedef unsigned long int __syscall_ulong_t;}-> N152
/usr/include/x86_64-linux-gnu/bits/types.h, line 203:	N152 -{typedef __off64_t __loff_t;}-> N153
/usr/include/x86_64-linux-gnu/bits/types.h, line 204:	N153 -{typedef char *__caddr_t;}-> N154
/usr/include/x86_64-linux-gnu/bits/types.h, line 207:	N154 -{typedef long int __intptr_t;}-> N155
/usr/include/x86_64-linux-gnu/bits/types.h, line 210:	N155 -{typedef unsigned int __socklen_t;}-> N156
/usr/include/x86_64-linux-gnu/bits/types.h, line 215:	N156 -{typedef int __sig_atomic_t;}-> N157
/usr/include/x86_64-linux-gnu/sys/types.h, line 33:	N157 -{typedef __u_char u_char;}-> N158
/usr/include/x86_64-linux-gnu/sys/types.h, line 34:	N158 -{typedef __u_short u_short;}-> N159
/usr/include/x86_64-linux-gnu/sys/types.h, line 35:	N159 -{typedef __u_int u_int;}-> N160
/usr/include/x86_64-linux-gnu/sys/types.h, line 36:	N160 -{typedef __u_long u_long;}-> N161
/usr/include/x86_64-linux-gnu/sys/types.h, line 37:	N161 -{typedef __quad_t quad_t;}-> N162
/usr/include/x86_64-linux-gnu/sys/types.h, line 38:	N162 -{typedef __u_quad_t u_quad_t;}-> N163
/usr/include/x86_64-linux-gnu/sys/types.h, line 39:	N163 -{typedef __fsid_t fsid_t;}-> N164
/usr/include/x86_64-linux-gnu/sys/types.h, line 42:	N164 -{typedef __loff_t loff_t;}-> N165
/usr/include/x86_64-linux-gnu/sys/types.h, line 47:	N165 -{typedef __ino_t ino_t;}-> N166
/usr/include/x86_64-linux-gnu/sys/types.h, line 59:	N166 -{typedef __dev_t dev_t;}-> N167
/usr/include/x86_64-linux-gnu/sys/types.h, line 64:	N167 -{typedef __gid_t gid_t;}-> N168
/usr/include/x86_64-linux-gnu/sys/types.h, line 69:	N168 -{typedef __mode_t mode_t;}-> N169
/usr/include/x86_64-linux-gnu/sys/types.h, line 74:	N169 -{typedef __nlink_t nlink_t;}-> N170
/usr/include/x86_64-linux-gnu/sys/types.h, line 79:	N170 -{typedef __uid_t uid_t;}-> N171
/usr/include/x86_64-linux-gnu/sys/types.h, line 85:	N171 -{typedef __off_t off_t;}-> N172
/usr/include/x86_64-linux-gnu/sys/types.h, line 97:	N172 -{typedef __pid_t pid_t;}-> N173
/usr/include/x86_64-linux-gnu/sys/types.h, line 103:	N173 -{typedef __id_t id_t;}-> N174
/usr/include/x86_64-linux-gnu/sys/types.h, line 108:	N174 -{typedef __ssize_t ssize_t;}-> N175
/usr/include/x86_64-linux-gnu/sys/types.h, line 114:	N175 -{typedef __daddr_t daddr_t;}-> N176
/usr/include/x86_64-linux-gnu/sys/types.h, line 115:	N176 -{typedef __caddr_t caddr_t;}-> N177
/usr/include/x86_64-linux-gnu/sys/types.h, line 121:	N177 -{typedef __key_t key_t;}-> N178
/usr/include/x86_64-linux-gnu/bits/types/clock_t.h, line 7:	N178 -{typedef __clock_t clock_t;}-> N179
/usr/include/x86_64-linux-gnu/bits/types/clockid_t.h, line 7:	N179 -{typedef __clockid_t clockid_t;}-> N180
/usr/include/x86_64-linux-gnu/bits/types/time_t.h, line 10:	N180 -{typedef __time_t time_t;}-> N181
/usr/include/x86_64-linux-gnu/bits/types/timer_t.h, line 7:	N181 -{typedef __timer_t timer_t;}-> N182
/usr/include/x86_64-linux-gnu/sys/types.h, line 148:	N182 -{typedef unsigned long int ulong;}-> N183
/usr/include/x86_64-linux-gnu/sys/types.h, line 149:	N183 -{typedef unsigned short int ushort;}-> N184
/usr/include/x86_64-linux-gnu/sys/types.h, line 150:	N184 -{typedef unsigned int uint;}-> N185
/usr/include/x86_64-linux-gnu/bits/stdint-intn.h, line 24:	N185 -{typedef __int8_t int8_t;}-> N186
/usr/include/x86_64-linux-gnu/bits/stdint-intn.h, line 25:	N186 -{typedef __int16_t int16_t;}-> N187
/usr/include/x86_64-linux-gnu/bits/stdint-intn.h, line 26:	N187 -{typedef __int32_t int32_t;}-> N188
/usr/include/x86_64-linux-gnu/bits/stdint-intn.h, line 27:	N188 -{typedef __int64_t int64_t;}-> N189
/usr/include/x86_64-linux-gnu/sys/types.h, line 158:	N189 -{typedef __uint8_t u_int8_t;}-> N190
/usr/include/x86_64-linux-gnu/sys/types.h, line 159:	N190 -{typedef __uint16_t u_int16_t;}-> N191
/usr/include/x86_64-linux-gnu/sys/types.h, line 160:	N191 -{typedef __uint32_t u_int32_t;}-> N192
/usr/include/x86_64-linux-gnu/sys/types.h, line 161:	N192 -{typedef __uint64_t u_int64_t;}-> N193
/usr/include/x86_64-linux-gnu/sys/types.h, line 164:	N193 -{typedef signed int register_t;}-> N194
/usr/include/x86_64-linux-gnu/bits/byteswap.h, lines 33-41:	N194 -{__uint16_t __bswap_16(__uint16_t __bsx);}-> N195
/usr/include/x86_64-linux-gnu/bits/byteswap.h, lines 48-56:	N195 -{__uint32_t __bswap_32(__uint32_t __bsx);}-> N196
/usr/include/x86_64-linux-gnu/bits/byteswap.h, lines 69-77:	N196 -{__uint64_t __bswap_64(__uint64_t __bsx);}-> N197
/usr/include/x86_64-linux-gnu/bits/uintn-identity.h, lines 32-36:	N197 -{__uint16_t __uint16_identity(__uint16_t __x);}-> N198
/usr/include/x86_64-linux-gnu/bits/uintn-identity.h, lines 38-42:	N198 -{__uint32_t __uint32_identity(__uint32_t __x);}-> N199
/usr/include/x86_64-linux-gnu/bits/uintn-identity.h, lines 44-48:	N199 -{__uint64_t __uint64_identity(__uint64_t __x);}-> N200
/usr/include/x86_64-linux-gnu/bits/types/__sigset_t.h, lines 5-8:	N200 -{struct __anon_type___sigset_t {   unsigned long int __val[32UL]; } ;}-> N201
/usr/include/x86_64-linux-gnu/bits/types/__sigset_t.h, lines 5-8:	N201 -{typedef struct __anon_type___sigset_t __sigset_t;}-> N202
/usr/include/x86_64-linux-gnu/bits/types/sigset_t.h, line 7:	N202 -{typedef __sigset_t sigset_t;}-> N203
/usr/include/x86_64-linux-gnu/bits/types/struct_timeval.h, lines 8-17:	N203 -{struct timeval {   __time_t tv_sec;   __suseconds_t tv_usec; } ;}-> N204
/usr/include/x86_64-linux-gnu/bits/types/struct_timespec.h, lines 11-31:	N204 -{struct timespec {   __time_t tv_sec;   __syscall_slong_t tv_nsec; } ;}-> N205
/usr/include/x86_64-linux-gnu/sys/select.h, line 43:	N205 -{typedef __suseconds_t suseconds_t;}-> N206
/usr/include/x86_64-linux-gnu/sys/select.h, line 49:	N206 -{typedef long int __fd_mask;}-> N207
/usr/include/x86_64-linux-gnu/sys/select.h, lines 59-70:	N207 -{struct __anon_type_fd_set {   __fd_mask __fds_bits[32]; } ;}-> N208
/usr/include/x86_64-linux-gnu/sys/select.h, lines 59-70:	N208 -{typedef struct __anon_type_fd_set fd_set;}-> N209
/usr/include/x86_64-linux-gnu/sys/select.h, line 77:	N209 -{typedef __fd_mask fd_mask;}-> N210
/usr/include/x86_64-linux-gnu/sys/select.h, lines 102-105:	N210 -{int select(int __nfds, fd_set *__readfds, fd_set *__writefds, fd_set *__exceptfds, struct timeval *__timeout);}-> N211
/usr/include/x86_64-linux-gnu/sys/select.h, lines 127-131:	N211 -{int pselect(int __nfds, fd_set *__readfds, fd_set *__writefds, fd_set *__exceptfds, const struct timespec *__timeout, const __sigset_t *__sigmask);}-> N212
/usr/include/x86_64-linux-gnu/sys/types.h, line 185:	N212 -{typedef __blksize_t blksize_t;}-> N213
/usr/include/x86_64-linux-gnu/sys/types.h, line 192:	N213 -{typedef __blkcnt_t blkcnt_t;}-> N214
/usr/include/x86_64-linux-gnu/sys/types.h, line 196:	N214 -{typedef __fsblkcnt_t fsblkcnt_t;}-> N215
/usr/include/x86_64-linux-gnu/sys/types.h, line 200:	N215 -{typedef __fsfilcnt_t fsfilcnt_t;}-> N216
/usr/include/x86_64-linux-gnu/bits/atomic_wide_counter.h, lines 28-32:	N216 -{struct __anon_type_0 {   unsigned int __low;   unsigned int __high; } ;}-> N217
/usr/include/x86_64-linux-gnu/bits/atomic_wide_counter.h, lines 25-33:	N217 -{union __anon_type___atomic_wide_counter {   unsigned long long int __value64;   struct __anon_type_0 __value32; } ;}-> N218
/usr/include/x86_64-linux-gnu/bits/atomic_wide_counter.h, lines 25-33:	N218 -{typedef union __anon_type___atomic_wide_counter __atomic_wide_counter;}-> N219
/usr/include/x86_64-linux-gnu/bits/thread-shared-types.h, lines 51-55:	N219 -{struct __pthread_internal_list {   struct __pthread_internal_list *__prev;   struct __pthread_internal_list *__next; } ;}-> N220
/usr/include/x86_64-linux-gnu/bits/thread-shared-types.h, lines 51-55:	N220 -{typedef struct __pthread_internal_list __pthread_list_t;}-> N221
/usr/include/x86_64-linux-gnu/bits/thread-shared-types.h, lines 57-60:	N221 -{struct __pthread_internal_slist {   struct __pthread_internal_slist *__next; } ;}-> N222
/usr/include/x86_64-linux-gnu/bits/thread-shared-types.h, lines 57-60:	N222 -{typedef struct __pthread_internal_slist __pthread_slist_t;}-> N223
/usr/include/x86_64-linux-gnu/bits/struct_mutex.h, lines 22-53:	N223 -{struct __pthread_mutex_s {   int __lock;   unsigned int __count;   int __owner;   unsigned int __nusers;   int __kind;   short __spins;   short __elision;   __pthread_list_t __list; } ;}-> N224
/usr/include/x86_64-linux-gnu/bits/struct_rwlock.h, lines 23-55:	N224 -{struct __pthread_rwlock_arch_t {   unsigned int __readers;   unsigned int __writers;   unsigned int __wrphase_futex;   unsigned int __writers_futex;   unsigned int __pad3;   unsigned int __pad4;   int __cur_writer;   int __shared;   signed char __rwelision;   unsigned char __pad1[7];   unsigned long int __pad2;   unsigned int __flags; } ;}-> N225
/usr/include/x86_64-linux-gnu/bits/thread-shared-types.h, lines 94-103:	N225 -{struct __pthread_cond_s {   __atomic_wide_counter __wseq;   __atomic_wide_counter __g1_start;   unsigned int __g_refs[2];   unsigned int __g_size[2];   unsigned int __g1_orig_size;   unsigned int __wrefs;   unsigned int __g_signals[2]; } ;}-> N226
/usr/include/x86_64-linux-gnu/bits/thread-shared-types.h, line 105:	N226 -{typedef unsigned int __tss_t;}-> N227
/usr/include/x86_64-linux-gnu/bits/thread-shared-types.h, line 106:	N227 -{typedef unsigned long int __thrd_t;}-> N228
/usr/include/x86_64-linux-gnu/bits/thread-shared-types.h, lines 108-111:	N228 -{struct __anon_type___once_flag {   int __data; } ;}-> N229
/usr/include/x86_64-linux-gnu/bits/thread-shared-types.h, lines 108-111:	N229 -{typedef struct __anon_type___once_flag __once_flag;}-> N230
/usr/include/x86_64-linux-gnu/bits/pthreadtypes.h, line 27:	N230 -{typedef unsigned long int pthread_t;}-> N231
/usr/include/x86_64-linux-gnu/bits/pthreadtypes.h, lines 32-36:	N231 -{union __anon_type_pthread_mutexattr_t {   char __size[4];   int __align; } ;}-> N232
/usr/include/x86_64-linux-gnu/bits/pthreadtypes.h, lines 32-36:	N232 -{typedef union __anon_type_pthread_mutexattr_t pthread_mutexattr_t;}-> N233
/usr/include/x86_64-linux-gnu/bits/pthreadtypes.h, lines 41-45:	N233 -{union __anon_type_pthread_condattr_t {   char __size[4];   int __align; } ;}-> N234
/usr/include/x86_64-linux-gnu/bits/pthreadtypes.h, lines 41-45:	N234 -{typedef union __anon_type_pthread_mutexattr_t pthread_condattr_t;}-> N235
/usr/include/x86_64-linux-gnu/bits/pthreadtypes.h, line 49:	N235 -{typedef unsigned int pthread_key_t;}-> N236
/usr/include/x86_64-linux-gnu/bits/pthreadtypes.h, line 53:	N236 -{typedef int pthread_once_t;}-> N237
/usr/include/x86_64-linux-gnu/bits/pthreadtypes.h, lines 56-60:	N237 -{union pthread_attr_t {   char __size[56];   long int __align; } ;}-> N238
/usr/include/x86_64-linux-gnu/bits/pthreadtypes.h, line 62:	N238 -{typedef union pthread_attr_t pthread_attr_t;}-> N239
/usr/include/x86_64-linux-gnu/bits/pthreadtypes.h, lines 67-72:	N239 -{union __anon_type_pthread_mutex_t {   struct __pthread_mutex_s __data;   char __size[40];   long int __align; } ;}-> N240
/usr/include/x86_64-linux-gnu/bits/pthreadtypes.h, lines 67-72:	N240 -{typedef union __anon_type_pthread_mutex_t pthread_mutex_t;}-> N241
/usr/include/x86_64-linux-gnu/bits/pthreadtypes.h, lines 75-80:	N241 -{union __anon_type_pthread_cond_t {   struct __pthread_cond_s __data;   char __size[48];   long long int __align; } ;}-> N242
/usr/include/x86_64-linux-gnu/bits/pthreadtypes.h, lines 75-80:	N242 -{typedef union __anon_type_pthread_cond_t pthread_cond_t;}-> N243
/usr/include/x86_64-linux-gnu/bits/pthreadtypes.h, lines 86-91:	N243 -{union __anon_type_pthread_rwlock_t {   struct __pthread_rwlock_arch_t __data;   char __size[56];   long int __align; } ;}-> N244
/usr/include/x86_64-linux-gnu/bits/pthreadtypes.h, lines 86-91:	N244 -{typedef union __anon_type_pthread_rwlock_t pthread_rwlock_t;}-> N245
/usr/include/x86_64-linux-gnu/bits/pthreadtypes.h, lines 93-97:	N245 -{union __anon_type_pthread_rwlockattr_t {   char __size[8];   long int __align; } ;}-> N246
/usr/include/x86_64-linux-gnu/bits/pthreadtypes.h, lines 93-97:	N246 -{typedef union __anon_type_pthread_rwlockattr_t pthread_rwlockattr_t;}-> N247
/usr/include/x86_64-linux-gnu/bits/pthreadtypes.h, line 103:	N247 -{typedef volatile int pthread_spinlock_t;}-> N248
/usr/include/x86_64-linux-gnu/bits/pthreadtypes.h, lines 108-112:	N248 -{union __anon_type_pthread_barrier_t {   char __size[32];   long int __align; } ;}-> N249
/usr/include/x86_64-linux-gnu/bits/pthreadtypes.h, lines 108-112:	N249 -{typedef union __anon_type_pthread_barrier_t pthread_barrier_t;}-> N250
/usr/include/x86_64-linux-gnu/bits/pthreadtypes.h, lines 114-118:	N250 -{union __anon_type_pthread_barrierattr_t {   char __size[4];   int __align; } ;}-> N251
/usr/include/x86_64-linux-gnu/bits/pthreadtypes.h, lines 114-118:	N251 -{typedef union __anon_type_pthread_mutexattr_t pthread_barrierattr_t;}-> N252
/usr/include/stdlib.h, line 402:	N252 -{long int random();}-> N253
/usr/include/stdlib.h, line 405:	N253 -{void srandom(unsigned int __seed);}-> N254
/usr/include/stdlib.h, lines 411-412:	N254 -{char *initstate(unsigned int __seed, char *__statebuf, size_t __statelen);}-> N255
/usr/include/stdlib.h, line 416:	N255 -{char *setstate(char *__statebuf);}-> N256
/usr/include/stdlib.h, lines 424-433:	N256 -{struct random_data {   int32_t *fptr;   int32_t *rptr;   int32_t *state;   int rand_type;   int rand_deg;   int rand_sep;   int32_t *end_ptr; } ;}-> N257
/usr/include/stdlib.h, lines 435-436:	N257 -{int random_r(struct random_data *__buf, int32_t *__result);}-> N258
/usr/include/stdlib.h, lines 438-439:	N258 -{int srandom_r(unsigned int __seed, struct random_data *__buf);}-> N259
/usr/include/stdlib.h, lines 441-444:	N259 -{int initstate_r(unsigned int __seed, char *__statebuf, size_t __statelen, struct random_data *__buf);}-> N260
/usr/include/stdlib.h, lines 446-448:	N260 -{int setstate_r(char *__statebuf, struct random_data *__buf);}-> N261
/usr/include/stdlib.h, line 454:	N261 -{int rand();}-> N262
/usr/include/stdlib.h, line 456:	N262 -{void srand(unsigned int __seed);}-> N263
/usr/include/stdlib.h, line 460:	N263 -{int rand_r(unsigned int *__seed);}-> N264
/usr/include/stdlib.h, line 468:	N264 -{double drand48();}-> N265
/usr/include/stdlib.h, line 469:	N265 -{double erand48(unsigned short int __xsubi[3]);}-> N266
/usr/include/stdlib.h, line 472:	N266 -{long int lrand48();}-> N267
/usr/include/stdlib.h, lines 473-474:	N267 -{long int nrand48(unsigned short int __xsubi[3]);}-> N268
/usr/include/stdlib.h, line 477:	N268 -{long int mrand48();}-> N269
/usr/include/stdlib.h, lines 478-479:	N269 -{long int jrand48(unsigned short int __xsubi[3]);}-> N270
/usr/include/stdlib.h, line 482:	N270 -{void srand48(long int __seedval);}-> N271
/usr/include/stdlib.h, lines 483-484:	N271 -{unsigned short int *seed48(unsigned short int __seed16v[3]);}-> N272
/usr/include/stdlib.h, line 485:	N272 -{void lcong48(unsigned short int __param[7]);}-> N273
/usr/include/stdlib.h, lines 491-499:	N273 -{struct drand48_data {   unsigned short int __x[3];   unsigned short int __old_x[3];   unsigned short int __c;   unsigned short int __init;   unsigned long long int __a; } ;}-> N274
/usr/include/stdlib.h, lines 502-503:	N274 -{int drand48_r(struct drand48_data *__buffer, double *__result);}-> N275
/usr/include/stdlib.h, lines 504-506:	N275 -{int erand48_r(unsigned short int __xsubi[3], struct drand48_data *__buffer, double *__result);}-> N276
/usr/include/stdlib.h, lines 509-511:	N276 -{int lrand48_r(struct drand48_data *__buffer, long int *__result);}-> N277
/usr/include/stdlib.h, lines 512-515:	N277 -{int nrand48_r(unsigned short int __xsubi[3], struct drand48_data *__buffer, long int *__result);}-> N278
/usr/include/stdlib.h, lines 518-520:	N278 -{int mrand48_r(struct drand48_data *__buffer, long int *__result);}-> N279
/usr/include/stdlib.h, lines 521-524:	N279 -{int jrand48_r(unsigned short int __xsubi[3], struct drand48_data *__buffer, long int *__result);}-> N280
/usr/include/stdlib.h, lines 527-528:	N280 -{int srand48_r(long int __seedval, struct drand48_data *__buffer);}-> N281
/usr/include/stdlib.h, lines 530-531:	N281 -{int seed48_r(unsigned short int __seed16v[3], struct drand48_data *__buffer);}-> N282
/usr/include/stdlib.h, lines 533-535:	N282 -{int lcong48_r(unsigned short int __param[7], struct drand48_data *__buffer);}-> N283
/usr/include/stdlib.h, lines 540-541:	N283 -{void *malloc(size_t __size);}-> N284
/usr/include/stdlib.h, lines 543-544:	N284 -{void *calloc(size_t __nmemb, size_t __size);}-> N285
/usr/include/stdlib.h, lines 551-552:	N285 -{void *realloc(void *__ptr, size_t __size);}-> N286
/usr/include/stdlib.h, line 555:	N286 -{void free(void *__ptr);}-> N287
/usr/include/stdlib.h, lines 563-566:	N287 -{void *reallocarray(void *__ptr, size_t __nmemb, size_t __size);}-> N288
/usr/include/alloca.h, line 32:	N288 -{void *alloca(size_t __size);}-> N289
/usr/include/stdlib.h, lines 580-581:	N289 -{void *valloc(size_t __size);}-> N290
/usr/include/stdlib.h, lines 586-587:	N290 -{int posix_memalign(void **__memptr, size_t __alignment, size_t __size);}-> N291
/usr/include/stdlib.h, lines 592-594:	N291 -{void *aligned_alloc(size_t __alignment, size_t __size);}-> N292
/usr/include/stdlib.h, line 598:	N292 -{void abort();}-> N293
/usr/include/stdlib.h, line 602:	N293 -{int atexit(void (*__func)());}-> N294
/usr/include/stdlib.h, line 610:	N294 -{int at_quick_exit(void (*__func)());}-> N295
/usr/include/stdlib.h, lines 617-618:	N295 -{int on_exit(void (*__func)(int __status, void *__arg), void *__arg);}-> N296
/usr/include/stdlib.h, line 624:	N296 -{void exit(int __status);}-> N297
/usr/include/stdlib.h, line 630:	N297 -{void quick_exit(int __status);}-> N298
/usr/include/stdlib.h, line 636:	N298 -{void _Exit(int __status);}-> N299
/usr/include/stdlib.h, line 641:	N299 -{char *getenv(const char *__name);}-> N300
/usr/include/stdlib.h, line 654:	N300 -{int putenv(char *__string);}-> N301
/usr/include/stdlib.h, lines 660-661:	N301 -{int setenv(const char *__name, const char *__value, int __replace);}-> N302
/usr/include/stdlib.h, line 664:	N302 -{int unsetenv(const char *__name);}-> N303
/usr/include/stdlib.h, line 671:	N303 -{int clearenv();}-> N304
/usr/include/stdlib.h, line 682:	N304 -{char *mktemp(char *__template);}-> N305
/usr/include/stdlib.h, line 695:	N305 -{int mkstemp(char *__template);}-> N306
/usr/include/stdlib.h, line 717:	N306 -{int mkstemps(char *__template, int __suffixlen);}-> N307
/usr/include/stdlib.h, line 738:	N307 -{char *mkdtemp(char *__template);}-> N308
/usr/include/stdlib.h, line 791:	N308 -{int system(const char *__command);}-> N309
/usr/include/stdlib.h, lines 808-809:	N309 -{char *realpath(const char *__name, char *__resolved);}-> N310
/usr/include/stdlib.h, line 816:	N310 -{typedef int (*__compar_fn_t)(const void *, const void *);}-> N311
/usr/include/stdlib.h, lines 828-830:	N311 -{void *bsearch(const void *__key, const void *__base, size_t __nmemb, size_t __size, __compar_fn_t __compar);}-> N312
/usr/include/stdlib.h, lines 838-839:	N312 -{void qsort(void *__base, size_t __nmemb, size_t __size, __compar_fn_t __compar);}-> N313
/usr/include/stdlib.h, line 848:	N313 -{int abs(int __x);}-> N314
/usr/include/stdlib.h, line 849:	N314 -{long int labs(long int __x);}-> N315
/usr/include/stdlib.h, lines 852-853:	N315 -{long long int llabs(long long int __x);}-> N316
/usr/include/stdlib.h, lines 860-861:	N316 -{div_t div(int __numer, int __denom);}-> N317
/usr/include/stdlib.h, lines 862-863:	N317 -{ldiv_t ldiv(long int __numer, long int __denom);}-> N318
/usr/include/stdlib.h, lines 866-868:	N318 -{lldiv_t lldiv(long long int __numer, long long int __denom);}-> N319
/usr/include/stdlib.h, lines 880-881:	N319 -{char *ecvt(double __value, int __ndigit, int *__decpt, int *__sign);}-> N320
/usr/include/stdlib.h, lines 886-887:	N320 -{char *fcvt(double __value, int __ndigit, int *__decpt, int *__sign);}-> N321
/usr/include/stdlib.h, lines 892-893:	N321 -{char *gcvt(double __value, int __ndigit, char *__buf);}-> N322
/usr/include/stdlib.h, lines 898-900:	N322 -{char *qecvt(long double __value, int __ndigit, int *__decpt, int *__sign);}-> N323
/usr/include/stdlib.h, lines 901-903:	N323 -{char *qfcvt(long double __value, int __ndigit, int *__decpt, int *__sign);}-> N324
/usr/include/stdlib.h, lines 904-905:	N324 -{char *qgcvt(long double __value, int __ndigit, char *__buf);}-> N325
/usr/include/stdlib.h, lines 910-912:	N325 -{int ecvt_r(double __value, int __ndigit, int *__decpt, int *__sign, char *__buf, size_t __len);}-> N326
/usr/include/stdlib.h, lines 913-915:	N326 -{int fcvt_r(double __value, int __ndigit, int *__decpt, int *__sign, char *__buf, size_t __len);}-> N327
/usr/include/stdlib.h, lines 917-920:	N327 -{int qecvt_r(long double __value, int __ndigit, int *__decpt, int *__sign, char *__buf, size_t __len);}-> N328
/usr/include/stdlib.h, lines 921-924:	N328 -{int qfcvt_r(long double __value, int __ndigit, int *__decpt, int *__sign, char *__buf, size_t __len);}-> N329
/usr/include/stdlib.h, line 930:	N329 -{int mblen(const char *__s, size_t __n);}-> N330
/usr/include/stdlib.h, lines 933-934:	N330 -{int mbtowc(wchar_t *__pwc, const char *__s, size_t __n);}-> N331
/usr/include/stdlib.h, line 937:	N331 -{int wctomb(char *__s, wchar_t __wchar);}-> N332
/usr/include/stdlib.h, lines 941-943:	N332 -{size_t mbstowcs(wchar_t *__pwcs, const char *__s, size_t __n);}-> N333
/usr/include/stdlib.h, lines 945-949:	N333 -{size_t wcstombs(char *__s, const wchar_t *__pwcs, size_t __n);}-> N334
/usr/include/stdlib.h, line 956:	N334 -{int rpmatch(const char *__response);}-> N335
/usr/include/stdlib.h, lines 967-970:	N335 -{int getsubopt(char **__optionp, char * const *__tokens, char **__valuep);}-> N336
/usr/include/stdlib.h, lines 1013-1014:	N336 -{int getloadavg(double __loadavg[], int __nelem);}-> N337
lines 5-9:	N337 -{void assume(int cond);}-> N338
lines 11-32:	N338 -{int main();}-> N339
none:	N339 -{Function start dummy edge}-> N38
line 12:	N38 -{float z;}-> N39
line 13:	N39 -{float y;}-> N40
	y == 2.524354896707238E-29;
line 14:	N40 -{float x;}-> N41
line 15:	N41 -{float tmp_var_1_float;}-> N42
line 16:	N42 -{int cond;}-> N43
line 19:	N43 -{[!(y < 0.0)]}-> N47
	y == 2.524354896707238E-29;
	y == 2.524354896707238E-29;
line 19:	N47 -{[!(1.0 < y)]}-> N46
	y == 2.524354896707238E-29;
	y == 2.524354896707238E-29;
line 22:	N46 -{cond = 1;}-> N49
	cond == 1;
none:	N49 -{}-> N44
line 24:	N44 -{assume(cond)}-> N31
none:	N31 -{Function start dummy edge}-> N32
	cond == 1;
line 6:	N32 -{[!(cond == 0)]}-> N33
	cond == 1;
	cond == 1;
none:	N33 -{default return}-> N30
line 24:	N30 -{Return edge from assume to main: assume(cond);}-> N50
line 27:	N50 -{[y != 0.0]}-> N53
	y == 2.524354896707238E-29;
	y == 2.524354896707238E-29;
line 27:	N53 -{[(y * y) == 0.0]}-> N52
line 28:	N52 -{int __CPAchecker_TMP_2;}-> N54
line 28:	N54 -{}-> N56
line 28:	N56 -{__CPAchecker_TMP_2 = 0;}-> N58
line 28:	N58 -{4UL;}-> N59
line 28:	N59 -{}-> N62
line 28:	N62 -{__assert_fail("0 && \"y != 0.f\"", "/home/zyl/biVerify/CPA_DATA2/C/F/llmfix/realOutput/iterationTry/inv_square-1_process_dc_iter1.c", 28, "__PRETTY_FUNCTION__");}-> N341
